0 82 81
1 68 84
2 74 88
3 78 90
4 50 89
5 80 89
6 61 90
7 82 89
8 93 92
9 81 82
10 79 84
11 86 88
12 83 87
13 79 86
14 81 85
15 49 86
16 73 84
17 80 82
18 66 82
19 79 82
20 75 82
21 62 82
22 79 84
23 72 83
24 81 82
25 26 79
26 60 77
27 67 74
28 63 70
29 64 71
30 67 68
31 69 69
32 65 69
33 66 69
34 50 69
35 58 67
36 59 66
37 66 68
38 67 68
39 31 67
40 62 67
41 49 66
42 60 63
43 56 63
44 59 61
45 52 58
46 46 56
47 44 56
48 52 58
49 40 57
50 20 56
51 45 55
52 33 53
53 42 51
54 47 50
55 42 50
56 33 49
57 39 46
58 35 43
59 40 43
60 38 40
61 35 41
62 29 41
63 26 39
64 15 36
65 34 34
66 29 33
67 31 35
68 25 31
69 24 29
70 23 27
71 11 27
72 20 24
73 11 22
74 10 21
75 1 21
76 12 17
77 7 16
78 11 15
79 7 13
80 12 13
81 7 14
82 14 13
83 10 13
84 11 11
85 7 10
86 8 9
87 7 8
88 4 6
89 3 3
90 3 4
91 4 3
92 4 3
93 2 3
94 2 3
95 1 1

